NAME : n150w40.003.894.tour
COMMENT : Length = 894
COMMENT : Found by LKH [Keld Helsgaun] Tue Nov  7 19:36:34 2017
TYPE : TOUR
DIMENSION : 151
TOUR_SECTION
1
87
139
143
142
16
95
71
14
44
89
88
36
54
72
52
81
104
64
34
18
5
125
76
39
141
23
62
121
7
75
86
29
93
30
97
6
47
108
59
107
21
127
31
140
80
3
26
124
137
60
42
96
146
24
22
84
129
35
49
19
82
114
111
136
103
123
122
138
46
98
2
38
131
69
58
78
70
130
25
112
33
109
147
56
118
119
20
43
132
77
144
106
94
120
135
53
12
51
45
115
85
9
101
117
61
37
113
27
17
74
65
32
73
102
99
13
110
50
105
149
133
68
4
10
134
92
57
148
145
63
8
15
11
91
66
116
90
55
41
126
79
83
100
48
67
150
40
128
151
28
-1
EOF
